NAME : problem.1548362.tour
COMMENT : Length = 1548362
COMMENT : Found by LKH-3 [Keld Helsgaun] Tue Nov 28 09:27:40 2023
TYPE : TOUR
DIMENSION : 110
TOUR_SECTION
1
93
36
49
91
24
9
19
12
72
76
88
104
40
66
57
51
4
45
38
63
46
28
110
31
11
56
39
95
37
42
84
8
105
6
59
97
20
98
26
89
60
103
5
22
61
78
70
7
80
10
29
100
106
21
53
55
62
47
86
48
109
92
17
41
90
64
75
3
79
96
77
15
18
85
107
23
35
71
81
32
13
101
34
102
43
54
14
74
16
50
25
2
73
52
69
44
108
58
30
33
27
65
94
83
68
67
87
82
99
-1
EOF
